# Solution for model r5_t18_m2_8 Batch Number: 2
# Finished Task: 16 / 18
# Makespan: 709.0, Total Distance: 422.0, Total Time: 1.1983
# R O S F Batch
0 0 10 0.0 0.0 -1
1 1 18 0.0 0.0 -1
2 2 21 0.0 0.0 -1
3 3 11 0.0 0.0 -1
4 4 14 0.0 0.0 -1
5 1 -1 652.0 676.0 1
6 3 -1 614.0 652.0 1
7 2 -1 676.0 709.0 1
8 4 -1 455.0 475.0 0
9 0 19 483.0 511.0 0
10 0 9 406.0 441.0 0
11 3 6 477.0 511.0 0
12 1 5 383.0 403.0 0
13 0 -1 584.0 614.0 1
14 4 8 406.0 440.0 0
15 2 7 485.0 510.0 0
16 -1 -1 -1.0 -1.0 1
17 2 15 441.0 464.0 0
18 1 12 284.0 320.0 0
19 0 13 535.0 567.0 1
20 2 17 372.0 406.0 0
21 2 20 330.0 359.0 0
22 -1 -1 -1.0 -1.0 1
